Route #1: 4 53 45 124 15
Route #2: 3 10 20 12 115 88 93
Route #3: 95 48 119 26 110 31 86
Route #4: 109 28 2 47 64 80 37 56
Route #5: 52 106 90 89 116
Route #6: 69 23 41 66 72 105 81 59 96
Route #7: 14 98 75 43 82 17 107
Route #8: 24 117 51 16 18 50
Route #9: 94 27
Route #10: 63 118 102 122 49
Route #11: 85 55 68 73 46
Route #12: 65 8 42 108 5 21
Route #13: 121 58
Route #14: 99 120 30 78
Route #15: 70 54 34
Route #16: 38 76
Route #17: 6 33 62
Route #18: 9 36
Route #19: 104 13
Route #20: 25 57
Route #21: 67 35 7 71 60 125 29 79
Route #22: 11 19
Route #23: 114 40 92
Route #24: 22 84
Route #25: 123 113 77
Route #26: 91 100 101
Route #27: 44 74 111
Route #28: 61 97
Route #29: 112 87
Route #30: 83 32
Route #31: 103 39
